10	5
0	5	5	2	3	4	1
1	3	6	8	10
2	3	8	6	7
3	1	6
4	2	10	8
5	5	10	7	6	9	8
6	1	11
7	1	11
8	1	11
9	1	11
10	1	11
11	0
0	0	0	0	0	0	0
1	4	0	0	0	1	2
2	7	1	3	0	5	3
3	8	0	0	1	0	0
4	8	0	0	0	0	2
5	1	0	0	0	4	0
6	8	0	0	4	0	0
7	6	3	3	5	3	2
8	4	1	4	0	2	4
9	7	1	1	0	0	2
10	10	2	0	2	0	2
11	0	0	0	0	0	0
3	4	5	6	6
